DIMENSION: 8
EDGE_WEIGHT_TYPE: EXPLICIT
EDGE_WEIGHT_FORMAT: FULL_MATRIX
EDGE_WEIGHT_SECTION:
32767 97 60 64 24 32767 38 29 
97 32767 77 54 21 69 16 32767 
60 77 32767 49 96 10 66 47 
64 54 49 32767 34 32767 57 32767 
24 21 96 34 32767 47 13 56 
32767 69 10 32767 47 32767 92 27 
38 16 66 57 13 92 32767 28 
29 32767 47 32767 56 27 28 32767 
EOF